Version identifier: 20.1.0.0 | 2020-11-10 | 9bedb6d68
Tried aggregator 2 times.
MIP Presolve eliminated 1321 rows and 741 columns.
MIP Presolve modified 2618 coefficients.
Aggregator did 146 substitutions.
Reduced MIP has 1089 rows, 920 columns, and 3463 nonzeros.
Reduced MIP has 250 binaries, 670 generals, 0 SOSs, and 0 indicators.
Presolve time = 0.01 sec. (5.60 ticks)
Found incumbent of value 81.000000 after 0.02 sec. (9.72 ticks)
Probing fixed 30 vars, tightened 277 bounds.
Probing time = 0.00 sec. (1.14 ticks)
Tried aggregator 2 times.
Detecting symmetries...
MIP Presolve eliminated 450 rows and 54 columns.
MIP Presolve modified 93 coefficients.
Aggregator did 15 substitutions.
Reduced MIP has 624 rows, 851 columns, and 2038 nonzeros.
Reduced MIP has 311 binaries, 540 generals, 0 SOSs, and 0 indicators.
Presolve time = 0.01 sec. (3.04 ticks)
Probing time = 0.00 sec. (0.17 ticks)
Clique table members: 1.
MIP emphasis: balance optimality and feasibility.
MIP search method: dynamic search.
Parallel mode: deterministic, using up to 24 threads.
Root relaxation solution time = 0.00 sec. (1.94 ticks)

        Nodes                                         Cuts/
   Node  Left     Objective  IInf  Best Integer    Best Bound    ItCnt     Gap

*     0+    0                           81.0000        0.0000           100.00%
      0     0        0.0000    45       81.0000        0.0000      209  100.00%
      0     0        0.5000    73       81.0000     Cuts: 160      413   99.38%
*     0+    0                           22.0000        0.5000            97.73%
      0     0        1.0000   131       22.0000      Cuts: 79      479   95.45%
*     0+    0                           19.0000        1.0000            94.74%
      0     0        1.1818   132       19.0000      Cuts: 49      525   93.78%
      0     0        1.3333   152       19.0000      Cuts: 50      565   92.98%
      0     0        1.5571   147       19.0000      Cuts: 64      633   91.80%
      0     0        2.1250   177       19.0000      Cuts: 81      682   88.82%
      0     0        2.2500   181       19.0000      Cuts: 66      729   88.16%
      0     0        2.3333   181       19.0000      Cuts: 52      771   87.72%
      0     0        2.3333   211       19.0000      Cuts: 58      814   87.72%
      0     0        2.5278   198       19.0000      Cuts: 37      887   86.70%
      0     0        2.6250   179       19.0000      Cuts: 65      917   86.18%
      0     0        3.0833   163       19.0000      Cuts: 72      991   83.77%
      0     0        3.1111   196       19.0000      Cuts: 80     1050   83.63%
*     0+    0                           14.0000        3.1111            77.78%
      0     0        cutoff             14.0000       14.0000     1083    0.00%
Elapsed time = 0.21 sec. (96.26 ticks, tree = 0.01 MB, solutions = 4)

Implied bound cuts applied:  17
Flow cuts applied:  3
Mixed integer rounding cuts applied:  28
Zero-half cuts applied:  148
Gomory fractional cuts applied:  18

Root node processing (before b&c):
  Real time             =    0.21 sec. (96.36 ticks)
Parallel b&c, 24 threads:
  Real time             =    0.00 sec. (0.00 ticks)
  Sync time (average)   =    0.00 sec.
  Wait time (average)   =    0.00 sec.
                          ------------
Total (root+branch&cut) =    0.21 sec. (96.36 ticks)

Solution status = Optimal
Solution LB = 14
Solution UB = 14
Runtime = 0.217961 seconds
	Command being timed: "/home/min/git_repos/CS598MEBProject/CNT-ILP/build/cnt -s 2 ./output/k6_n30/simC_c1_k6_n30_u3_s3_del02.input-right.cnp"
	User time (seconds): 1.59
	System time (seconds): 0.08
	Percent of CPU this job got: 718%
	Elapsed (wall clock) time (h:mm:ss or m:ss): 0:00.23
	Average shared text size (kbytes): 0
	Average unshared data size (kbytes): 0
	Average stack size (kbytes): 0
	Average total size (kbytes): 0
	Maximum resident set size (kbytes): 78016
	Average resident set size (kbytes): 0
	Major (requiring I/O) page faults: 0
	Minor (reclaiming a frame) page faults: 16932
	Voluntary context switches: 3734
	Involuntary context switches: 198
	Swaps: 0
	File system inputs: 0
	File system outputs: 16
	Socket messages sent: 0
	Socket messages received: 0
	Signals delivered: 0
	Page size (bytes): 4096
	Exit status: 0
